min: 9 - 9 * x_0_0 + 10 - 10 * x_0_1 + 10 - 10 * x_0_2 + 9 - 9 * x_0_3 + 8 - 8 * x_0_4 + 10 - 10 * x_0_5 + 11 - 11 * x_0_6 + 8 - 8 * x_0_7 + 10 - 10 * x_0_8 + 9 - 9 * x_0_9 + 9 - 9 * x_0_10 + 11 - 11 * x_0_11 + 9 - 9 * x_0_12 + 10 - 10 * x_0_13 + 7 - 7 * x_0_14 + 10 - 10 * x_0_15 + 8 - 8 * x_1_0 + 9 - 9 * x_1_1 + 1 - 1 * x_1_2 + 5 - 5 * x_1_3 + 14 - 14 * x_1_4 + 6 - 6 * x_1_5 + 9 - 9 * x_1_6 + 5 - 5 * x_1_7 + 4 - 4 * x_1_8 + 6 - 6 * x_1_9 + 5 - 5 * x_1_10 + 9 - 9 * x_1_11 + 3 - 3 * x_1_12 + 1 - 1 * x_1_13 + 3 - 3 * x_1_14 + 8 - 8 * x_1_15 + 7 - 7 * x_2_0 + 3 - 3 * x_2_1 + 9 - 9 * x_2_2 + 8 - 8 * x_2_3 + 12 - 12 * x_2_4 + 9 - 9 * x_2_5 + 10 - 10 * x_2_6 + 4 - 4 * x_2_7 + 7 - 7 * x_2_8 + 1 - 1 * x_2_9 + 8 - 8 * x_2_10 + 10 - 10 * x_2_11 + 6 - 6 * x_2_12 + 9 - 9 * x_2_13 + 5 - 5 * x_2_14 + 9 - 9 * x_2_15 + 8 - 8 * x_3_0 + 3 - 3 * x_3_1 + 11 - 11 * x_3_2 + 4 - 4 * x_3_3 + 9 - 9 * x_3_4 + 8 - 8 * x_3_5 + 4 - 4 * x_3_6 + 7 - 7 * x_3_7 + 9 - 9 * x_3_8 + 8 - 8 * x_3_9 + 5 - 5 * x_3_10 + 6 - 6 * x_3_11 + 8 - 8 * x_3_12 + 5 - 5 * x_3_13 + 4 - 4 * x_3_14 + 8 - 8 * x_3_15;

auchMin = 23 * x_0_0 + 15 * x_0_1 + 21 * x_0_2 + 17 * x_0_3 + 35 * x_0_4 + 23 * x_0_5 + 23 * x_0_6 + 16 * x_0_7 + 20 * x_0_8 + 15 * x_0_9 + 18 * x_0_10 + 25 * x_0_11 + 17 * x_0_12 + 15 * x_0_13 + 12 * x_0_14 + 25 * x_0_15 + 24 * x_1_0 + 16 * x_1_1 + 30 * x_1_2 + 21 * x_1_3 + 29 * x_1_4 + 27 * x_1_5 + 25 * x_1_6 + 19 * x_1_7 + 26 * x_1_8 + 18 * x_1_9 + 22 * x_1_10 + 27 * x_1_11 + 23 * x_1_12 + 24 * x_1_13 + 16 * x_1_14 + 27 * x_1_15 + 25 * x_2_0 + 22 * x_2_1 + 22 * x_2_2 + 18 * x_2_3 + 31 * x_2_4 + 24 * x_2_5 + 24 * x_2_6 + 20 * x_2_7 + 23 * x_2_8 + 23 * x_2_9 + 19 * x_2_10 + 26 * x_2_11 + 20 * x_2_12 + 16 * x_2_13 + 14 * x_2_14 + 26 * x_2_15 + 24 * x_3_0 + 22 * x_3_1 + 20 * x_3_2 + 22 * x_3_3 + 34 * x_3_4 + 25 * x_3_5 + 30 * x_3_6 + 17 * x_3_7 + 21 * x_3_8 + 16 * x_3_9 + 22 * x_3_10 + 30 * x_3_11 + 18 * x_3_12 + 20 * x_3_13 + 15 * x_3_14 + 27 * x_3_15;

w1 = 9 - 9 * x_0_0 + 10 - 10 * x_0_1 + 10 - 10 * x_0_2 + 9 - 9 * x_0_3 + 8 - 8 * x_0_4 + 10 - 10 * x_0_5 + 11 - 11 * x_0_6 + 8 - 8 * x_0_7 + 10 - 10 * x_0_8 + 9 - 9 * x_0_9 + 9 - 9 * x_0_10 + 11 - 11 * x_0_11 + 9 - 9 * x_0_12 + 10 - 10 * x_0_13 + 7 - 7 * x_0_14 + 10 - 10 * x_0_15;
w2 = 8 - 8 * x_1_0 + 9 - 9 * x_1_1 + 1 - 1 * x_1_2 + 5 - 5 * x_1_3 + 14 - 14 * x_1_4 + 6 - 6 * x_1_5 + 9 - 9 * x_1_6 + 5 - 5 * x_1_7 + 4 - 4 * x_1_8 + 6 - 6 * x_1_9 + 5 - 5 * x_1_10 + 9 - 9 * x_1_11 + 3 - 3 * x_1_12 + 1 - 1 * x_1_13 + 3 - 3 * x_1_14 + 8 - 8 * x_1_15;
w3 = 7 - 7 * x_2_0 + 3 - 3 * x_2_1 + 9 - 9 * x_2_2 + 8 - 8 * x_2_3 + 12 - 12 * x_2_4 + 9 - 9 * x_2_5 + 10 - 10 * x_2_6 + 4 - 4 * x_2_7 + 7 - 7 * x_2_8 + 1 - 1 * x_2_9 + 8 - 8 * x_2_10 + 10 - 10 * x_2_11 + 6 - 6 * x_2_12 + 9 - 9 * x_2_13 + 5 - 5 * x_2_14 + 9 - 9 * x_2_15;
w4 = 8 - 8 * x_3_0 + 3 - 3 * x_3_1 + 11 - 11 * x_3_2 + 4 - 4 * x_3_3 + 9 - 9 * x_3_4 + 8 - 8 * x_3_5 + 4 - 4 * x_3_6 + 7 - 7 * x_3_7 + 9 - 9 * x_3_8 + 8 - 8 * x_3_9 + 5 - 5 * x_3_10 + 6 - 6 * x_3_11 + 8 - 8 * x_3_12 + 5 - 5 * x_3_13 + 4 - 4 * x_3_14 + 8 - 8 * x_3_15;


w5 = 23 * x_0_0 + 15 * x_0_1 + 21 * x_0_2 + 17 * x_0_3 + 35 * x_0_4 + 23 * x_0_5 + 23 * x_0_6 + 16 * x_0_7 + 20 * x_0_8 + 15 * x_0_9 + 18 * x_0_10 + 25 * x_0_11 + 17 * x_0_12 + 15 * x_0_13 + 12 * x_0_14 + 25 * x_0_15;
w6 = 24 * x_1_0 + 16 * x_1_1 + 30 * x_1_2 + 21 * x_1_3 + 29 * x_1_4 + 27 * x_1_5 + 25 * x_1_6 + 19 * x_1_7 + 26 * x_1_8 + 18 * x_1_9 + 22 * x_1_10 + 27 * x_1_11 + 23 * x_1_12 + 24 * x_1_13 + 16 * x_1_14 + 27 * x_1_15;
w7 = 25 * x_2_0 + 22 * x_2_1 + 22 * x_2_2 + 18 * x_2_3 + 31 * x_2_4 + 24 * x_2_5 + 24 * x_2_6 + 20 * x_2_7 + 23 * x_2_8 + 23 * x_2_9 + 19 * x_2_10 + 26 * x_2_11 + 20 * x_2_12 + 16 * x_2_13 + 14 * x_2_14 + 26 * x_2_15;
w8 = 24 * x_3_0 + 22 * x_3_1 + 20 * x_3_2 + 22 * x_3_3 + 34 * x_3_4 + 25 * x_3_5 + 30 * x_3_6 + 17 * x_3_7 + 21 * x_3_8 + 16 * x_3_9 + 22 * x_3_10 + 30 * x_3_11 + 18 * x_3_12 + 20 * x_3_13 + 15 * x_3_14 + 27 * x_3_15;


x_0_0 + x_1_0 + x_2_0 + x_3_0 = 1;
x_0_1 + x_1_1 + x_2_1 + x_3_1 = 1;
x_0_2 + x_1_2 + x_2_2 + x_3_2 = 1;
x_0_3 + x_1_3 + x_2_3 + x_3_3 = 1;
x_0_4 + x_1_4 + x_2_4 + x_3_4 = 1;
x_0_5 + x_1_5 + x_2_5 + x_3_5 = 1;
x_0_6 + x_1_6 + x_2_6 + x_3_6 = 1;
x_0_7 + x_1_7 + x_2_7 + x_3_7 = 1;
x_0_8 + x_1_8 + x_2_8 + x_3_8 = 1;
x_0_9 + x_1_9 + x_2_9 + x_3_9 = 1;
x_0_10 + x_1_10 + x_2_10 + x_3_10 = 1;
x_0_11 + x_1_11 + x_2_11 + x_3_11 = 1;
x_0_12 + x_1_12 + x_2_12 + x_3_12 = 1;
x_0_13 + x_1_13 + x_2_13 + x_3_13 = 1;
x_0_14 + x_1_14 + x_2_14 + x_3_14 = 1;
x_0_15 + x_1_15 + x_2_15 + x_3_15 = 1;


bin x_0_0;
bin x_0_1;
bin x_0_2;
bin x_0_3;
bin x_0_4;
bin x_0_5;
bin x_0_6;
bin x_0_7;
bin x_0_8;
bin x_0_9;
bin x_0_10;
bin x_0_11;
bin x_0_12;
bin x_0_13;
bin x_0_14;
bin x_0_15;
bin x_1_0;
bin x_1_1;
bin x_1_2;
bin x_1_3;
bin x_1_4;
bin x_1_5;
bin x_1_6;
bin x_1_7;
bin x_1_8;
bin x_1_9;
bin x_1_10;
bin x_1_11;
bin x_1_12;
bin x_1_13;
bin x_1_14;
bin x_1_15;
bin x_2_0;
bin x_2_1;
bin x_2_2;
bin x_2_3;
bin x_2_4;
bin x_2_5;
bin x_2_6;
bin x_2_7;
bin x_2_8;
bin x_2_9;
bin x_2_10;
bin x_2_11;
bin x_2_12;
bin x_2_13;
bin x_2_14;
bin x_2_15;
bin x_3_0;
bin x_3_1;
bin x_3_2;
bin x_3_3;
bin x_3_4;
bin x_3_5;
bin x_3_6;
bin x_3_7;
bin x_3_8;
bin x_3_9;
bin x_3_10;
bin x_3_11;
bin x_3_12;
bin x_3_13;
bin x_3_14;
bin x_3_15;
